(set-info :source  loris-7.ddns.comp.nus.edu.sg/~project/hip/) 
;Variables declarations
(declare-fun d_3232 () Int)
(declare-fun mx () Int)
(declare-fun m3_3231 () Int)
(declare-fun m1_3234 () Int)
(declare-fun m2_3237 () Int)
(declare-fun t () Int)
(declare-fun n () Int)
(declare-fun t_primed () Int)
(declare-fun mx1_3235 () Int)
(declare-fun m1_3229 () Int)
(declare-fun l_3233 () Int)
(declare-fun mx2_3238 () Int)
(declare-fun m2_3230 () Int)
(declare-fun r_3236 () Int)
;Relations declarations
;Axioms assertions
;Antecedent
(assert (= n (+ (+ m2_3237 1) m1_3234)))
(assert (<= 0 d_3232))
(assert (<= mx1_3235 d_3232))
(assert (<= mx2_3238 d_3232))
(assert (<= d_3232 mx))
(assert (= (+ m3_3231 m2_3237) m1_3234))
(assert (<= 0 m3_3231))
(assert (<= m3_3231 1))
(assert (= m1_3229 m1_3234))
(assert (= m2_3230 m2_3237))
(assert (= t_primed t))
(assert (< 0 n))
(assert true)
(assert (= t_primed 1))
(assert (or (and (and (< l_3233 1) (= m1_3229 0)) (= mx1_3235 0)) (and (and (<= 0 mx1_3235) (<= 1 m1_3229)) (> l_3233 0))))
(assert (or (and (and (< r_3236 1) (= m2_3230 0)) (= mx2_3238 0)) (and (and (<= 0 mx2_3238) (<= 1 m2_3230)) (> r_3236 0))))
;Negation of Consequence
(assert (not false))
(check-sat)